objective value:                     20.0000000000001
lambda[1,19]*                        2.00000000000001 	(obj:10)
lambda[0,19]*                                       6 	(obj:0)
lambda[1,23]*                                       3 	(obj:0)
lambda[0,24]*                                       4 	(obj:0)
lambda[1,25]*                                       2 	(obj:0)
lambda[1,26]*                                       2 	(obj:0)
lambda[1,27]*                                       1 	(obj:0)
